(set-logic HORN)
(set-info :source |
  Benchmark: test_safe_2019/esop2017/queen_simple.ml
  Generated by MoCHi
|)
(set-info :status unknown)
(declare-fun |fail_30[536:0]| ( Int) Bool)
(declare-fun |loop[390:3][529:0]| ( Int  Int  Int  Int) Bool)
(declare-fun |assign[414:4][523:0]| ( Int  Int  Int  Int  Int) Bool)
(declare-fun |assign[414:7][449:0][512:0]| ( Int  Int  Int  Int  Int  Int  Int) Bool)
(declare-fun |loop[460:3][504:0]| ( Int  Int  Int  Int) Bool)
(declare-fun |assign[496:4][498:0]| ( Int  Int  Int  Int  Int) Bool)
(declare-fun |assign[496:6]| ( Int  Int  Int  Int  Int  Int) Bool)
(declare-fun |loop[460:3][462:1][489:0]| ( Int  Int  Int  Int  Int) Bool)
(declare-fun |assign[414:7][449:0][470:1][481:0]| ( Int  Int  Int  Int  Int  Int  Int  Int) Bool)
(declare-fun |assign[414:4][416:1][443:0]| ( Int  Int  Int  Int  Int  Int) Bool)
(declare-fun |assign[414:7][449:0][470:0]| ( Int  Int  Int  Int  Int  Int  Int) Bool)
(declare-fun |loop[460:3][462:0]| ( Int  Int  Int  Int) Bool)
(declare-fun |loop[460:2]| ( Int  Int  Int) Bool)
(declare-fun |loop[390:3][422:1][437:0]| ( Int  Int  Int  Int  Int) Bool)
(declare-fun |loop[390:3][422:0]| ( Int  Int  Int  Int) Bool)
(declare-fun |assign[414:4][416:0]| ( Int  Int  Int  Int  Int) Bool)
(declare-fun |assign[414:6]| ( Int  Int  Int  Int  Int  Int) Bool)
(declare-fun |loop[390:3][392:1][407:0]| ( Int  Int  Int  Int  Int) Bool)
(declare-fun |loop[390:3][392:0]| ( Int  Int  Int  Int) Bool)
(declare-fun |loop[390:2]| ( Int  Int  Int) Bool)
(assert (not (exists ((x0 Int)) (|fail_30[536:0]| x0))))
(assert (forall ((x0 Int)(x4 Int)(x1 Int)) (=> (and (|loop[390:3][529:0]| 0 x4 x4 x1) (and (>= x4 1) (or (>= 0 (+ 1 x1)) (>= x1 x4)))) (|fail_30[536:0]| x0))))
(assert (forall ((x1 Int)(x2 Int)(x0 Int)(x3 Int)(var716 Int)) (=> (and (|assign[414:4][523:0]| x0 x1 x2 x0 x3) (and (|loop[390:2]| x1 x2 x0) (and (|loop[390:3][392:1][407:0]| x1 x2 x0 x1 var716) (<= (+ 1 var716) x2)))) (|loop[390:3][529:0]| x1 x2 x0 x3))))
(assert (forall ((x3 Int)(x4 Int)(x5 Int)(x2 Int)(x6 Int)(x0 Int)(var717 Int)(x1 Int)) (=> (and (|assign[414:4][416:1][443:0]| x3 x4 x5 x2 x0 var717) (and (|assign[414:6]| x3 x4 x5 x2 x0 x1) (and (|assign[414:7][449:0][512:0]| x3 x4 x5 x2 x0 x1 x6) (not (= x0 x6))))) (|assign[414:4][523:0]| x3 x4 x5 x2 x6))))
(assert (forall ((x2 Int)(x3 Int)(x4 Int)(x5 Int)(x6 Int)(x7 Int)(x1 Int)(x0 Int)) (=> (and (|assign[414:6]| x2 x3 x4 x5 x6 x7) (and (|loop[460:3][504:0]| x3 x4 x2 x1) (and (|loop[390:2]| x3 x4 x2) (and (|loop[390:3][392:1][407:0]| x3 x4 x2 x3 x0) (and (= (+ 1 x3) x4) (and (<= x7 x4) (and (= x7 (+ 1 x0)) (and (= x3 x6) (= x2 x5))))))))) (|assign[414:7][449:0][512:0]| x2 x3 x4 x5 x6 x7 x1))))
(assert (forall ((x1 Int)(x2 Int)(x0 Int)(x3 Int)(var718 Int)) (=> (and (|assign[496:4][498:0]| x0 x1 x2 x0 x3) (and (|loop[460:2]| x1 x2 x0) (and (|loop[460:3][462:1][489:0]| x1 x2 x0 x1 var718) (>= var718 x2)))) (|loop[460:3][504:0]| x1 x2 x0 x3))))
(assert (forall ((x0 Int)(x1 Int)(x2 Int)(x3 Int)(x4 Int)(x5 Int)) (=> (|assign[496:6]| x0 x1 x2 x3 x4 x5) (|assign[496:4][498:0]| x0 x1 x2 x3 x4))))
(assert (forall ((x3 Int)(x4 Int)(x5 Int)(x2 Int)(x1 Int)(x0 Int)(x6 Int)) (=> (and (|loop[460:2]| x4 x5 x3) (and (|loop[460:3][462:1][489:0]| x4 x5 x3 x4 x6) (and (= x0 0) (and (= x3 x2) (and (= x4 x1) (>= x6 x5)))))) (|assign[496:6]| x3 x4 x5 x2 x1 x0))))
(assert (forall ((x5 Int)(x6 Int)(x7 Int)(x3 Int)(x4 Int)(x1 Int)(x2 Int)) (=> (and (|loop[460:2]| x5 x6 x7) (and (|assign[414:7][449:0][470:1][481:0]| x7 x5 x6 x7 x5 x1 x3 x4) (and (|loop[390:2]| x5 x6 x7) (and (|loop[390:3][392:1][407:0]| x5 x6 x7 x5 x2) (and (= (+ 1 x5) x6) (and (= x1 (+ 1 x2)) (<= x1 x6))))))) (|loop[460:3][462:1][489:0]| x5 x6 x7 x3 x4))))
(assert (forall ((x3 Int)(x4 Int)(x5 Int)(x2 Int)(x0 Int)(x1 Int)(x6 Int)(x7 Int)(var719 Int)) (=> (and (|assign[414:4][416:1][443:0]| x3 x4 x5 x2 x0 var719) (and (|assign[414:6]| x3 x4 x5 x2 x0 x1) (and (|assign[414:7][449:0][470:0]| x3 x4 x5 x2 x0 x1 x6) (and (= x7 x1) (= x0 x6))))) (|assign[414:7][449:0][470:1][481:0]| x3 x4 x5 x2 x0 x1 x6 x7))))
(assert (forall ((x2 Int)(x3 Int)(x4 Int)(x5 Int)(x6 Int)(x7 Int)(x1 Int)(x0 Int)) (=> (and (|assign[414:6]| x2 x3 x4 x5 x6 x7) (and (|loop[460:3][462:0]| x3 x4 x2 x1) (and (|loop[390:2]| x3 x4 x2) (and (|loop[390:3][392:1][407:0]| x3 x4 x2 x3 x0) (and (= (+ 1 x3) x4) (and (<= x7 x4) (and (= x7 (+ 1 x0)) (and (= x3 x6) (= x2 x5))))))))) (|assign[414:7][449:0][470:0]| x2 x3 x4 x5 x6 x7 x1))))
(assert (forall ((x1 Int)(x2 Int)(x3 Int)(x0 Int)) (=> (and (|loop[460:2]| x1 x2 x3) (= x0 x1)) (|loop[460:3][462:0]| x1 x2 x3 x0))))
(assert (forall ((x2 Int)(x3 Int)(x0 Int)(x4 Int)) (=> (and (|loop[390:2]| x2 x3 x0) (and (|loop[390:3][392:1][407:0]| x2 x3 x0 x2 x4) (and (= (+ 1 x2) x3) (<= (+ 1 x4) x3)))) (|loop[460:2]| x2 x3 x0))))
(assert (forall ((x2 Int)(x3 Int)(x4 Int)(x0 Int)(x6 Int)(x7 Int)(x5 Int)) (=> (and (|loop[390:3][392:1][407:0]| x3 x4 x2 x3 x5) (and (|loop[390:2]| x3 x4 x2) (and (|loop[390:3][422:1][437:0]| x3 x4 x2 x6 x7) (and (= x2 x0) (<= (+ 1 x5) x4))))) (|assign[414:4][416:1][443:0]| x2 x3 x4 x0 x6 x7))))
(assert (forall ((x2 Int)(x3 Int)(x4 Int)(x0 Int)(x1 Int)) (=> (and (|loop[390:2]| x2 x3 x4) (and (|loop[390:3][422:0]| 0 x3 x3 x0) (and (= x2 0) (and (= x1 0) (and (<= 0 x0) (and (<= (+ 1 x0) x3) (and (>= x3 1) (= x4 x3)))))))) (|loop[390:3][422:1][437:0]| x2 x3 x4 x0 x1))))
(assert (forall ((x1 Int)(x2 Int)(x0 Int)(x3 Int)(var720 Int)) (=> (and (|assign[414:4][416:0]| x0 x1 x2 x0 x3) (and (|loop[390:2]| x1 x2 x0) (and (|loop[390:3][392:1][407:0]| x1 x2 x0 x1 var720) (<= (+ 1 var720) x2)))) (|loop[390:3][422:0]| x1 x2 x0 x3))))
(assert (forall ((x0 Int)(x1 Int)(x2 Int)(x3 Int)(x4 Int)(x5 Int)) (=> (|assign[414:6]| x0 x1 x2 x3 x4 x5) (|assign[414:4][416:0]| x0 x1 x2 x3 x4))))
(assert (forall ((x2 Int)(x3 Int)(x4 Int)(x1 Int)(x0 Int)(x6 Int)(x5 Int)) (=> (and (|loop[390:2]| x3 x4 x2) (and (|loop[390:3][392:1][407:0]| x3 x4 x2 x3 x5) (and (<= x6 x4) (and (= x6 (+ 1 x5)) (and (= x3 x0) (= x2 x1)))))) (|assign[414:6]| x2 x3 x4 x1 x0 x6))))
(assert (forall ((x2 Int)(x3 Int)(x4 Int)(x0 Int)(x1 Int)) (=> (and (|loop[390:2]| x2 x3 x4) (and (|loop[390:3][392:0]| 0 x3 x3 x0) (and (= x2 0) (and (= x1 0) (and (<= 0 x0) (and (<= (+ 1 x0) x3) (and (>= x3 1) (= x4 x3)))))))) (|loop[390:3][392:1][407:0]| x2 x3 x4 x0 x1))))
(assert (forall ((x1 Int)(x2 Int)(x3 Int)(x0 Int)) (=> (and (|loop[390:2]| x1 x2 x3) (= x0 x1)) (|loop[390:3][392:0]| x1 x2 x3 x0))))
(assert (forall ((x0 Int)(x2 Int)(x1 Int)) (=> (and (= x0 0) (and (>= x2 1) (= x2 x1))) (|loop[390:2]| x0 x2 x1))))
(check-sat)
(get-model)
(exit)
